13508
101001001101001001001000110000
8 11 8 0 8 5 2 9 2 17 9 8 8 8 0 8 14 17 5 11 2 0 2 0 5 14 2 24 5 24 5 25 2 5 20 20 24 24 11 14 0 8 9 8 11 14 0 14 5 14 5 14 14 5 8 8 17 2 2 14 0 24 20 11 0 25 24 0 5 5 8 20 11 0 24 8 5 20 14 9 20 0 8 17 17 17 0 0 20 25 2 24 17 11 17 11 14 2 5 0 20 14 14 11 17 25 17 11 2 8 14 14 2 11 11 25 24 24 5 24 5 20 25 20 14 11 5 0 2 0 17 25 24 5 17 14 17 5 20 17 0 8 20 14 8 25 25 5 2 5 